NAME          DCAP_3_4_2_300_SS28
ROWS
 N  OBJ
 L  CON1
 L  CON2
 L  CON3
 L  CON4
 L  CON5
 L  CON6
 L  CON7
 L  CON8
 L  CON9
 L  CON10
 L  CON11
 L  CON12
 E  CON13
 E  CON14
 E  CON15
 E  CON16
 E  CON17
 E  CON18
 E  CON19
 E  CON20
COLUMNS
    x[1,1]    OBJ       6.180167      CON1      1.000000    
    x[1,1]    CON7      -1.000000     CON8      -1.000000   
    x[1,2]    OBJ       5.039546      CON2      1.000000    
    x[1,2]    CON8      -1.000000   
    x[2,1]    OBJ       6.732585      CON3      1.000000    
    x[2,1]    CON9      -1.000000     CON10     -1.000000   
    x[2,2]    OBJ       7.443064      CON4      1.000000    
    x[2,2]    CON10     -1.000000   
    x[3,1]    OBJ       6.563535      CON5      1.000000    
    x[3,1]    CON11     -1.000000     CON12     -1.000000   
    x[3,2]    OBJ       6.054841      CON6      1.000000    
    x[3,2]    CON12     -1.000000   
    MARKER    'MARKER'                'INTORG'
    u[1,1]    OBJ       48.076654     CON1      -1.000000   
    u[1,2]    OBJ       49.466655     CON2      -1.000000   
    u[2,1]    OBJ       49.996186     CON3      -1.000000   
    u[2,2]    OBJ       32.230043     CON4      -1.000000   
    u[3,1]    OBJ       20.066487     CON5      -1.000000   
    u[3,2]    OBJ       27.484319     CON6      -1.000000   
    y[1,1,1]  OBJ       6.393515      CON7      0.897300    
    y[1,1,1]  CON13     1.000000    
    y[1,1,2]  OBJ       9.864185      CON8      1.345709    
    y[1,1,2]  CON14     1.000000    
    y[1,2,1]  OBJ       7.976967      CON7      1.194232    
    y[1,2,1]  CON15     1.000000    
    y[1,2,2]  OBJ       7.325415      CON8      0.770585    
    y[1,2,2]  CON16     1.000000    
    y[1,3,1]  OBJ       7.228923      CON7      1.359639    
    y[1,3,1]  CON17     1.000000    
    y[1,3,2]  OBJ       9.357871      CON8      0.609803    
    y[1,3,2]  CON18     1.000000    
    y[1,4,1]  OBJ       7.939119      CON7      1.388264    
    y[1,4,1]  CON19     1.000000    
    y[1,4,2]  OBJ       7.733514      CON8      0.972204    
    y[1,4,2]  CON20     1.000000    
    y[2,1,1]  OBJ       7.768513      CON9      0.897300    
    y[2,1,1]  CON13     1.000000    
    y[2,1,2]  OBJ       7.210429      CON10     1.345709    
    y[2,1,2]  CON14     1.000000    
    y[2,2,1]  OBJ       9.241926      CON9      1.194232    
    y[2,2,1]  CON15     1.000000    
    y[2,2,2]  OBJ       6.374430      CON10     0.770585    
    y[2,2,2]  CON16     1.000000    
    y[2,3,1]  OBJ       6.934405      CON9      1.359639    
    y[2,3,1]  CON17     1.000000    
    y[2,3,2]  OBJ       6.777434      CON10     0.609803    
    y[2,3,2]  CON18     1.000000    
    y[2,4,1]  OBJ       8.264900      CON9      1.388264    
    y[2,4,1]  CON19     1.000000    
    y[2,4,2]  OBJ       8.356705      CON10     0.972204    
    y[2,4,2]  CON20     1.000000    
    y[3,1,1]  OBJ       5.423159      CON11     0.897300    
    y[3,1,1]  CON13     1.000000    
    y[3,1,2]  OBJ       6.893631      CON12     1.345709    
    y[3,1,2]  CON14     1.000000    
    y[3,2,1]  OBJ       7.644882      CON11     1.194232    
    y[3,2,1]  CON15     1.000000    
    y[3,2,2]  OBJ       7.878653      CON12     0.770585    
    y[3,2,2]  CON16     1.000000    
    y[3,3,1]  OBJ       9.525377      CON11     1.359639    
    y[3,3,1]  CON17     1.000000    
    y[3,3,2]  OBJ       6.102209      CON12     0.609803    
    y[3,3,2]  CON18     1.000000    
    y[3,4,1]  OBJ       5.230929      CON11     1.388264    
    y[3,4,1]  CON19     1.000000    
    y[3,4,2]  OBJ       7.222322      CON12     0.972204    
    y[3,4,2]  CON20     1.000000    
    z[1,1]    OBJ       654.652019    CON13     1.000000    
    z[1,2]    OBJ       858.700150    CON14     1.000000    
    z[2,1]    OBJ       683.477230    CON15     1.000000    
    z[2,2]    OBJ       977.568934    CON16     1.000000    
    z[3,1]    OBJ       680.305963    CON17     1.000000    
    z[3,2]    OBJ       593.723732    CON18     1.000000    
    z[4,1]    OBJ       690.452735    CON19     1.000000    
    z[4,2]    OBJ       637.568031    CON20     1.000000    
    MARKER    'MARKER'                 'INTEND'
RHS
    RHS       CON1      -0.000000     CON2      -0.000000   
    RHS       CON3      -0.000000     CON4      -0.000000   
    RHS       CON5      -0.000000     CON6      -0.000000   
    RHS       CON7      -0.000000     CON8      -0.000000   
    RHS       CON9      -0.000000     CON10     -0.000000   
    RHS       CON11     -0.000000     CON12     -0.000000   
    RHS       CON13     1.000000      CON14     1.000000    
    RHS       CON15     1.000000      CON16     1.000000    
    RHS       CON17     1.000000      CON18     1.000000    
    RHS       CON19     1.000000      CON20     1.000000    
BOUNDS
 BV BOUND     u[1,1]  
 BV BOUND     u[1,2]  
 BV BOUND     u[2,1]  
 BV BOUND     u[2,2]  
 BV BOUND     u[3,1]  
 BV BOUND     u[3,2]  
 BV BOUND     y[1,1,1]
 BV BOUND     y[1,1,2]
 BV BOUND     y[1,2,1]
 BV BOUND     y[1,2,2]
 BV BOUND     y[1,3,1]
 BV BOUND     y[1,3,2]
 BV BOUND     y[1,4,1]
 BV BOUND     y[1,4,2]
 BV BOUND     y[2,1,1]
 BV BOUND     y[2,1,2]
 BV BOUND     y[2,2,1]
 BV BOUND     y[2,2,2]
 BV BOUND     y[2,3,1]
 BV BOUND     y[2,3,2]
 BV BOUND     y[2,4,1]
 BV BOUND     y[2,4,2]
 BV BOUND     y[3,1,1]
 BV BOUND     y[3,1,2]
 BV BOUND     y[3,2,1]
 BV BOUND     y[3,2,2]
 BV BOUND     y[3,3,1]
 BV BOUND     y[3,3,2]
 BV BOUND     y[3,4,1]
 BV BOUND     y[3,4,2]
 BV BOUND     z[1,1]  
 BV BOUND     z[1,2]  
 BV BOUND     z[2,1]  
 BV BOUND     z[2,2]  
 BV BOUND     z[3,1]  
 BV BOUND     z[3,2]  
 BV BOUND     z[4,1]  
 BV BOUND     z[4,2]  
ENDATA
